
-3.6
-3.3
-3.2
-3.0
-3.0
-3.0
-3.0
-2.8
-2.8
-2.8
-2.5
-2.4
-2.3
-2.1
-2.1
-1.9
-1.3
-0.8
-0.7
-0.4
-0.4
-0.3
-0.3
-0.3
-0.3
-0.3
-0.3
-0.3
-0.3
-0.3
-0.3
-0.3
-0.3
-0.3
-0.3
-0.3
-0.3
-0.3
-3.5
-3.3
-3.1
-3.0
-3.0
-2.9
-2.9
-2.9
-2.7
-2.7
-2.6
-2.5
-2.4
-2.3
-2.2
-1.9
-1.5
-1.1
-0.5
-0.3
-0.3
-0.3
-0.3
-0.2
-0.2
-0.2
-0.2
-0.2
-0.2
-0.2
-0.2
-0.2
-0.2
-0.2
-0.2
-0.2
-0.2
-0.2
-0.2
-0.2
-0.2
-0.2
-0.2
-0.2
-3.6
-3.4
-3.4
-3.2
-3.1
-3.0
-3.0
-2.9
-2.9
-2.8
-2.7
-2.5
-2.5
-2.2
-2.2
-2.0
-1.3
-1.1
-0.6
-0.6
-0.6
-0.6
-0.6
-0.6
-0.6
-0.6
-0.6
-0.6
-0.6
-0.6
-0.5
-0.5
-0.5
-0.5
-0.5
-0.5
-0.5
-0.5
-0.5
-0.5
-0.5
-0.5
-0.5
-0.5
-0.5
-0.5
-0.5
-0.5
-0.5
-0.5
-0.5